unsat
(define-fun skel ((n237 Bool) (n231 Bool) (n193 Bool) (n153 Bool)) Bool (and (and (and n193 n237) n153) n231))
1.87user 0.01system 0:01.89elapsed 99%CPU (0avgtext+0avgdata 33640maxresident)k
0inputs+8outputs (0major+3092minor)pagefaults 0swaps
